* ENCODING=ISO-8859-1
NAME          IloCplex
ROWS
 N  obj1    
 L  c1      
 E  c2      
 E  c3      
 E  c4      
 E  c5      
 E  c6      
 E  c7      
 E  c8      
 E  c9      
 E  c10     
 E  c11     
 E  c12     
 E  c13     
 E  c14     
 E  c15     
 E  c16     
 E  c17     
 E  c18     
 E  c19     
 E  c20     
 E  c21     
 L  c22     
 L  c23     
 L  c24     
 L  c25     
 L  c26     
 L  c27     
 L  c28     
 L  c29     
 L  c30     
 L  c31     
 L  c32     
 L  c33     
 L  c34     
 L  c35     
 L  c36     
 L  c37     
 L  c38     
 L  c39     
 L  c40     
 L  c41     
 L  c42     
 L  c43     
 L  c44     
 L  c45     
 L  c46     
 L  c47     
 L  c48     
 L  c49     
 L  c50     
 L  c51     
 L  c52     
 L  c53     
 L  c54     
 L  c55     
 L  c56     
 L  c57     
 L  c58     
 L  c59     
 L  c60     
 L  c61     
 L  c62     
 L  c63     
 L  c64     
 L  c65     
 L  c66     
 L  c67     
 L  c68     
 L  c69     
 L  c70     
 L  c71     
 L  c72     
 L  c73     
 L  c74     
 L  c75     
 L  c76     
 L  c77     
 L  c78     
 L  c79     
 L  c80     
 L  c81     
 L  c82     
 L  c83     
 L  c84     
 L  c85     
 L  c86     
 L  c87     
 L  c88     
 L  c89     
 L  c90     
 L  c91     
 L  c92     
 L  c93     
 L  c94     
 L  c95     
 L  c96     
 L  c97     
 L  c98     
 L  c99     
 L  c100    
 L  c101    
 L  c102    
 L  c103    
 L  c104    
 L  c105    
 L  c106    
 L  c107    
 L  c108    
 L  c109    
 L  c110    
 L  c111    
 L  c112    
 L  c113    
 L  c114    
 L  c115    
 L  c116    
 L  c117    
 L  c118    
 L  c119    
 L  c120    
 L  c121    
 L  c122    
 L  c123    
 L  c124    
 L  c125    
 L  c126    
COLUMNS
    y_a_96    c1                              1
    y_a_96    c4                             -1
    y_a_96    c20                             1
    y_a_96    c118                            1
    y_a_97    c1                              1
    y_a_97    c8                             -1
    y_a_97    c20                             1
    y_a_97    c119                            1
    y_a_98    c1                              1
    y_a_98    c2                             -1
    y_a_98    c20                             1
    y_a_98    c120                            1
    y_a_99    c1                              1
    y_a_99    c5                             -1
    y_a_99    c20                             1
    y_a_99    c121                            1
    y_a_0     c2                              1
    y_a_0     c3                             -1
    y_a_0     c22                             1
    y_a_1     c2                              1
    y_a_1     c4                             -1
    y_a_1     c23                             1
    y_a_2     c2                              1
    y_a_2     c5                             -1
    y_a_2     c24                             1
    y_a_3     c2                              1
    y_a_3     c7                             -1
    y_a_3     c25                             1
    y_a_4     c2                              1
    y_a_4     c13                            -1
    y_a_4     c26                             1
    y_a_5     c2                              1
    y_a_5     c16                            -1
    y_a_5     c27                             1
    y_a_6     c2                              1
    y_a_6     c17                            -1
    y_a_6     c28                             1
    y_a_7     c2                              1
    y_a_7     c18                            -1
    y_a_7     c29                             1
    y_a_8     c3                              1
    y_a_8     c4                             -1
    y_a_8     c30                             1
    y_a_9     c3                              1
    y_a_9     c5                             -1
    y_a_9     c31                             1
    y_a_10    c3                              1
    y_a_10    c6                             -1
    y_a_10    c32                             1
    y_a_11    c3                              1
    y_a_11    c7                             -1
    y_a_11    c33                             1
    y_a_12    c3                              1
    y_a_12    c9                             -1
    y_a_12    c34                             1
    y_a_13    c3                              1
    y_a_13    c10                            -1
    y_a_13    c35                             1
    y_a_14    c3                              1
    y_a_14    c13                            -1
    y_a_14    c36                             1
    y_a_15    c3                              1
    y_a_15    c14                            -1
    y_a_15    c37                             1
    y_a_16    c3                              1
    y_a_16    c15                            -1
    y_a_16    c38                             1
    y_a_17    c3                              1
    y_a_17    c18                            -1
    y_a_17    c39                             1
    y_a_18    c3                              1
    y_a_18    c19                            -1
    y_a_18    c40                             1
    y_a_19    c4                              1
    y_a_19    c5                             -1
    y_a_19    c41                             1
    y_a_20    c4                              1
    y_a_20    c8                             -1
    y_a_20    c42                             1
    y_a_21    c4                              1
    y_a_21    c9                             -1
    y_a_21    c43                             1
    y_a_22    c4                              1
    y_a_22    c13                            -1
    y_a_22    c44                             1
    y_a_23    c4                              1
    y_a_23    c14                            -1
    y_a_23    c45                             1
    y_a_24    c4                              1
    y_a_24    c15                            -1
    y_a_24    c46                             1
    y_a_25    c4                              1
    y_a_25    c18                            -1
    y_a_25    c47                             1
    y_a_26    c5                              1
    y_a_26    c8                             -1
    y_a_26    c48                             1
    y_a_27    c5                              1
    y_a_27    c12                            -1
    y_a_27    c49                             1
    y_a_28    c5                              1
    y_a_28    c13                            -1
    y_a_28    c50                             1
    y_a_29    c5                              1
    y_a_29    c14                            -1
    y_a_29    c51                             1
    y_a_30    c5                              1
    y_a_30    c15                            -1
    y_a_30    c52                             1
    y_a_31    c5                              1
    y_a_31    c16                            -1
    y_a_31    c53                             1
    y_a_32    c5                              1
    y_a_32    c17                            -1
    y_a_32    c54                             1
    y_a_33    c5                              1
    y_a_33    c18                            -1
    y_a_33    c55                             1
    y_a_34    c5                              1
    y_a_34    c19                            -1
    y_a_34    c56                             1
    y_a_35    c6                              1
    y_a_35    c8                             -1
    y_a_35    c57                             1
    y_a_36    c6                              1
    y_a_36    c9                             -1
    y_a_36    c58                             1
    y_a_37    c6                              1
    y_a_37    c10                            -1
    y_a_37    c59                             1
    y_a_38    c6                              1
    y_a_38    c11                            -1
    y_a_38    c60                             1
    y_a_39    c6                              1
    y_a_39    c12                            -1
    y_a_39    c61                             1
    y_a_40    c6                              1
    y_a_40    c14                            -1
    y_a_40    c62                             1
    y_a_41    c6                              1
    y_a_41    c16                            -1
    y_a_41    c63                             1
    y_a_42    c6                              1
    y_a_42    c18                            -1
    y_a_42    c64                             1
    y_a_43    c7                              1
    y_a_43    c10                            -1
    y_a_43    c65                             1
    y_a_44    c7                              1
    y_a_44    c11                            -1
    y_a_44    c66                             1
    y_a_45    c7                              1
    y_a_45    c12                            -1
    y_a_45    c67                             1
    y_a_46    c7                              1
    y_a_46    c14                            -1
    y_a_46    c68                             1
    y_a_47    c7                              1
    y_a_47    c16                            -1
    y_a_47    c69                             1
    y_a_48    c7                              1
    y_a_48    c17                            -1
    y_a_48    c70                             1
    y_a_49    c7                              1
    y_a_49    c18                            -1
    y_a_49    c71                             1
    y_a_50    c7                              1
    y_a_50    c19                            -1
    y_a_50    c72                             1
    y_a_51    c8                              1
    y_a_51    c9                             -1
    y_a_51    c73                             1
    y_a_52    c8                              1
    y_a_52    c10                            -1
    y_a_52    c74                             1
    y_a_53    c8                              1
    y_a_53    c12                            -1
    y_a_53    c75                             1
    y_a_54    c8                              1
    y_a_54    c13                            -1
    y_a_54    c76                             1
    y_a_55    c8                              1
    y_a_55    c15                            -1
    y_a_55    c77                             1
    y_a_56    c8                              1
    y_a_56    c16                            -1
    y_a_56    c78                             1
    y_a_57    c8                              1
    y_a_57    c19                            -1
    y_a_57    c79                             1
    y_a_58    c9                              1
    y_a_58    c10                            -1
    y_a_58    c80                             1
    y_a_59    c9                              1
    y_a_59    c11                            -1
    y_a_59    c81                             1
    y_a_60    c9                              1
    y_a_60    c12                            -1
    y_a_60    c82                             1
    y_a_61    c9                              1
    y_a_61    c14                            -1
    y_a_61    c83                             1
    y_a_62    c9                              1
    y_a_62    c16                            -1
    y_a_62    c84                             1
    y_a_63    c9                              1
    y_a_63    c17                            -1
    y_a_63    c85                             1
    y_a_64    c9                              1
    y_a_64    c18                            -1
    y_a_64    c86                             1
    y_a_65    c9                              1
    y_a_65    c19                            -1
    y_a_65    c87                             1
    y_a_100   c9                              1
    y_a_100   c21                            -1
    y_a_100   c122                            1
    y_a_101   c9                              1
    y_a_101   c21                            -1
    y_a_101   c123                            1
    y_a_66    c10                             1
    y_a_66    c11                            -1
    y_a_66    c88                             1
    y_a_67    c10                             1
    y_a_67    c12                            -1
    y_a_67    c89                             1
    y_a_68    c10                             1
    y_a_68    c13                            -1
    y_a_68    c90                             1
    y_a_69    c10                             1
    y_a_69    c14                            -1
    y_a_69    c91                             1
    y_a_70    c10                             1
    y_a_70    c15                            -1
    y_a_70    c92                             1
    y_a_71    c10                             1
    y_a_71    c19                            -1
    y_a_71    c93                             1
    y_a_72    c11                             1
    y_a_72    c12                            -1
    y_a_72    c94                             1
    y_a_73    c11                             1
    y_a_73    c13                            -1
    y_a_73    c95                             1
    y_a_74    c11                             1
    y_a_74    c14                            -1
    y_a_74    c96                             1
    y_a_75    c11                             1
    y_a_75    c16                            -1
    y_a_75    c97                             1
    y_a_76    c11                             1
    y_a_76    c17                            -1
    y_a_76    c98                             1
    y_a_77    c11                             1
    y_a_77    c18                            -1
    y_a_77    c99                             1
    y_a_78    c11                             1
    y_a_78    c19                            -1
    y_a_78    c100                            1
    y_a_79    c12                             1
    y_a_79    c13                            -1
    y_a_79    c101                            1
    y_a_80    c12                             1
    y_a_80    c15                            -1
    y_a_80    c102                            1
    y_a_81    c12                             1
    y_a_81    c16                            -1
    y_a_81    c103                            1
    y_a_82    c13                             1
    y_a_82    c14                            -1
    y_a_82    c104                            1
    y_a_83    c13                             1
    y_a_83    c15                            -1
    y_a_83    c105                            1
    y_a_84    c13                             1
    y_a_84    c16                            -1
    y_a_84    c106                            1
    y_a_85    c13                             1
    y_a_85    c18                            -1
    y_a_85    c107                            1
    y_a_86    c14                             1
    y_a_86    c15                            -1
    y_a_86    c108                            1
    y_a_87    c14                             1
    y_a_87    c16                            -1
    y_a_87    c109                            1
    y_a_88    c14                             1
    y_a_88    c17                            -1
    y_a_88    c110                            1
    y_a_89    c14                             1
    y_a_89    c19                            -1
    y_a_89    c111                            1
    y_a_90    c15                             1
    y_a_90    c16                            -1
    y_a_90    c112                            1
    y_a_91    c15                             1
    y_a_91    c18                            -1
    y_a_91    c113                            1
    y_a_102   c15                             1
    y_a_102   c21                            -1
    y_a_102   c124                            1
    y_a_92    c16                             1
    y_a_92    c17                            -1
    y_a_92    c114                            1
    y_a_93    c16                             1
    y_a_93    c18                            -1
    y_a_93    c115                            1
    y_a_94    c17                             1
    y_a_94    c18                            -1
    y_a_94    c116                            1
    y_a_95    c18                             1
    y_a_95    c19                            -1
    y_a_95    c117                            1
    y_a_103   c18                             1
    y_a_103   c21                            -1
    y_a_103   c125                            1
    y_a_104   c20                            -1
    y_a_104   c21                             1
    y_a_104   c126                            1
    MARK0000  'MARKER'                 'INTORG'
    x_a_0     c22                            22
    x_a_1     c23                            33
    x_a_2     c24                            45
    x_a_3     c25                            34
    x_a_4     c26                            31
    x_a_5     c27                            44
    x_a_6     c28                            35
    x_a_7     c29                            37
    x_a_8     c30                             8
    x_a_9     c31                            42
    x_a_10    c32                            21
    x_a_11    c33                            43
    x_a_12    c34                            14
    x_a_13    c35                             8
    x_a_14    c36                            10
    x_a_15    c37                            26
    x_a_16    c38                            33
    x_a_17    c39                            19
    x_a_18    c40                            17
    x_a_19    c41                            49
    x_a_20    c42                            28
    x_a_21    c43                            30
    x_a_22    c44                             4
    x_a_23    c45                            11
    x_a_24    c46                            18
    x_a_25    c47                            11
    x_a_26    c48                             1
    x_a_27    c49                            35
    x_a_28    c50                            45
    x_a_29    c51                            27
    x_a_30    c52                            21
    x_a_31    c53                            17
    x_a_32    c54                             1
    x_a_33    c55                             1
    x_a_34    c56                             7
    x_a_35    c57                            28
    x_a_36    c58                            28
    x_a_37    c59                            14
    x_a_38    c60                            28
    x_a_39    c61                            24
    x_a_40    c62                            19
    x_a_41    c63                            27
    x_a_42    c64                            32
    x_a_43    c65                            16
    x_a_44    c66                            37
    x_a_45    c67                            19
    x_a_46    c68                            44
    x_a_47    c69                            32
    x_a_48    c70                            30
    x_a_49    c71                            49
    x_a_50    c72                            18
    x_a_51    c73                             8
    x_a_52    c74                            48
    x_a_53    c75                            40
    x_a_54    c76                            32
    x_a_55    c77                            40
    x_a_56    c78                             2
    x_a_57    c79                            30
    x_a_58    c80                            39
    x_a_59    c81                            39
    x_a_60    c82                            45
    x_a_61    c83                            39
    x_a_62    c84                            40
    x_a_63    c85                            42
    x_a_64    c86                             8
    x_a_65    c87                             9
    x_a_66    c88                            43
    x_a_67    c89                            48
    x_a_68    c90                            46
    x_a_69    c91                            18
    x_a_70    c92                            29
    x_a_71    c93                            49
    x_a_72    c94                             3
    x_a_73    c95                             2
    x_a_74    c96                             1
    x_a_75    c97                            30
    x_a_76    c98                            24
    x_a_77    c99                            24
    x_a_78    c100                           27
    x_a_79    c101                            5
    x_a_80    c102                           29
    x_a_81    c103                            8
    x_a_82    c104                           42
    x_a_83    c105                           30
    x_a_84    c106                           29
    x_a_85    c107                           39
    x_a_86    c108                            1
    x_a_87    c109                            1
    x_a_88    c110                           43
    x_a_89    c111                           36
    x_a_90    c112                           39
    x_a_91    c113                           21
    x_a_92    c114                           41
    x_a_93    c115                            6
    x_a_94    c116                           38
    x_a_95    c117                           33
    x_a_96    c118                     50000000
    x_a_97    c119                     50000000
    x_a_98    c120                     50000000
    x_a_99    c121                     50000000
    x_a_100   c122                     50000000
    x_a_101   c123                     50000000
    x_a_102   c124                     50000000
    x_a_103   c125                     50000000
    x_a_104   c126                        10000
    MARK0001  'MARKER'                 'INTEND'
RHS
    rhs       c1                          247.8
    rhs       c22                            22
    rhs       c23                            33
    rhs       c24                            45
    rhs       c25                            34
    rhs       c26                            31
    rhs       c27                            44
    rhs       c28                            35
    rhs       c29                            37
    rhs       c30                             8
    rhs       c31                            42
    rhs       c32                            21
    rhs       c33                            43
    rhs       c34                            14
    rhs       c35                             8
    rhs       c36                            10
    rhs       c37                            26
    rhs       c38                            33
    rhs       c39                            19
    rhs       c40                            17
    rhs       c41                            49
    rhs       c42                            28
    rhs       c43                            30
    rhs       c44                             4
    rhs       c45                            11
    rhs       c46                            18
    rhs       c47                            11
    rhs       c48                             1
    rhs       c49                            35
    rhs       c50                            45
    rhs       c51                            27
    rhs       c52                            21
    rhs       c53                            17
    rhs       c54                             1
    rhs       c55                             1
    rhs       c56                             7
    rhs       c57                            28
    rhs       c58                            28
    rhs       c59                            14
    rhs       c60                            28
    rhs       c61                            24
    rhs       c62                            19
    rhs       c63                            27
    rhs       c64                            32
    rhs       c65                            16
    rhs       c66                            37
    rhs       c67                            19
    rhs       c68                            44
    rhs       c69                            32
    rhs       c70                            30
    rhs       c71                            49
    rhs       c72                            18
    rhs       c73                             8
    rhs       c74                            48
    rhs       c75                            40
    rhs       c76                            32
    rhs       c77                            40
    rhs       c78                             2
    rhs       c79                            30
    rhs       c80                            39
    rhs       c81                            39
    rhs       c82                            45
    rhs       c83                            39
    rhs       c84                            40
    rhs       c85                            42
    rhs       c86                             8
    rhs       c87                             9
    rhs       c88                            43
    rhs       c89                            48
    rhs       c90                            46
    rhs       c91                            18
    rhs       c92                            29
    rhs       c93                            49
    rhs       c94                             3
    rhs       c95                             2
    rhs       c96                             1
    rhs       c97                            30
    rhs       c98                            24
    rhs       c99                            24
    rhs       c100                           27
    rhs       c101                            5
    rhs       c102                           29
    rhs       c103                            8
    rhs       c104                           42
    rhs       c105                           30
    rhs       c106                           29
    rhs       c107                           39
    rhs       c108                            1
    rhs       c109                            1
    rhs       c110                           43
    rhs       c111                           36
    rhs       c112                           39
    rhs       c113                           21
    rhs       c114                           41
    rhs       c115                            6
    rhs       c116                           38
    rhs       c117                           33
    rhs       c118                     50000000
    rhs       c119                     50000000
    rhs       c120                     50000000
    rhs       c121                     50000000
    rhs       c122                     50000000
    rhs       c123                     50000000
    rhs       c124                     50000000
    rhs       c125                     50000000
    rhs       c126                        10000
BOUNDS
 BV bnd       x_a_0   
 BV bnd       x_a_1   
 BV bnd       x_a_2   
 BV bnd       x_a_3   
 BV bnd       x_a_4   
 BV bnd       x_a_5   
 BV bnd       x_a_6   
 BV bnd       x_a_7   
 BV bnd       x_a_8   
 BV bnd       x_a_9   
 BV bnd       x_a_10  
 BV bnd       x_a_11  
 BV bnd       x_a_12  
 BV bnd       x_a_13  
 BV bnd       x_a_14  
 BV bnd       x_a_15  
 BV bnd       x_a_16  
 BV bnd       x_a_17  
 BV bnd       x_a_18  
 BV bnd       x_a_19  
 BV bnd       x_a_20  
 BV bnd       x_a_21  
 BV bnd       x_a_22  
 BV bnd       x_a_23  
 BV bnd       x_a_24  
 BV bnd       x_a_25  
 BV bnd       x_a_26  
 BV bnd       x_a_27  
 BV bnd       x_a_28  
 BV bnd       x_a_29  
 BV bnd       x_a_30  
 BV bnd       x_a_31  
 BV bnd       x_a_32  
 BV bnd       x_a_33  
 BV bnd       x_a_34  
 BV bnd       x_a_35  
 BV bnd       x_a_36  
 BV bnd       x_a_37  
 BV bnd       x_a_38  
 BV bnd       x_a_39  
 BV bnd       x_a_40  
 BV bnd       x_a_41  
 BV bnd       x_a_42  
 BV bnd       x_a_43  
 BV bnd       x_a_44  
 BV bnd       x_a_45  
 BV bnd       x_a_46  
 BV bnd       x_a_47  
 BV bnd       x_a_48  
 BV bnd       x_a_49  
 BV bnd       x_a_50  
 BV bnd       x_a_51  
 BV bnd       x_a_52  
 BV bnd       x_a_53  
 BV bnd       x_a_54  
 BV bnd       x_a_55  
 BV bnd       x_a_56  
 BV bnd       x_a_57  
 BV bnd       x_a_58  
 BV bnd       x_a_59  
 BV bnd       x_a_60  
 BV bnd       x_a_61  
 BV bnd       x_a_62  
 BV bnd       x_a_63  
 BV bnd       x_a_64  
 BV bnd       x_a_65  
 BV bnd       x_a_66  
 BV bnd       x_a_67  
 BV bnd       x_a_68  
 BV bnd       x_a_69  
 BV bnd       x_a_70  
 BV bnd       x_a_71  
 BV bnd       x_a_72  
 BV bnd       x_a_73  
 BV bnd       x_a_74  
 BV bnd       x_a_75  
 BV bnd       x_a_76  
 BV bnd       x_a_77  
 BV bnd       x_a_78  
 BV bnd       x_a_79  
 BV bnd       x_a_80  
 BV bnd       x_a_81  
 BV bnd       x_a_82  
 BV bnd       x_a_83  
 BV bnd       x_a_84  
 BV bnd       x_a_85  
 BV bnd       x_a_86  
 BV bnd       x_a_87  
 BV bnd       x_a_88  
 BV bnd       x_a_89  
 BV bnd       x_a_90  
 BV bnd       x_a_91  
 BV bnd       x_a_92  
 BV bnd       x_a_93  
 BV bnd       x_a_94  
 BV bnd       x_a_95  
 BV bnd       x_a_96  
 BV bnd       x_a_97  
 BV bnd       x_a_98  
 BV bnd       x_a_99  
 BV bnd       x_a_100 
 BV bnd       x_a_101 
 BV bnd       x_a_102 
 BV bnd       x_a_103 
 BV bnd       x_a_104 
ENDATA
